(set-logic QF_S)
(declare-fun var0 () String)
(assert (str.in.re var0 (re.++ (re.+ (re.+ (str.to.re "0"))) (re.++ (re.* (re.* (str.to.re "1"))) (re.++ (re.+ (re.* (str.to.re "22"))) (re.++ (re.* (re.+ (str.to.re "33"))) (re.++ (re.union (re.* (str.to.re "4")) (re.* (str.to.re "5"))) (re.++ (re.+ (re.union (str.to.re "66") (str.to.re "777"))) (re.++ (re.+ (re.* (str.to.re "8"))) (re.++ (re.union (re.union (str.to.re "9") (str.to.re "a")) (re.union (str.to.re "b") (str.to.re "ccc"))) (re.++ (re.+ (re.+ (str.to.re "ddd"))) (re.++ (re.+ (re.union (str.to.re "e") (str.to.re "f"))) (re.++ (re.+ (re.union (str.to.re "ggg") (str.to.re "hh"))) (re.++ (re.+ (re.+ (str.to.re "i"))) (re.++ (re.union (re.* (str.to.re "jj")) (re.* (str.to.re "kk"))) (re.++ (re.+ (re.+ (str.to.re "l"))) (re.++ (re.union (re.* (str.to.re "mmm")) (re.* (str.to.re "nn"))) (re.++ (re.union (re.union (str.to.re "oo") (str.to.re "pp")) (re.union (str.to.re "qqq") (str.to.re "rrr"))) (re.++ (re.union (re.union (str.to.re "s") (str.to.re "t")) (re.union (str.to.re "uuu") (str.to.re "vvv"))) (re.++ (re.* (re.* (str.to.re "www"))) (re.++ (re.+ (re.+ (str.to.re "xxx"))) (re.++ (re.+ (re.* (str.to.re "yy"))) (re.++ (re.+ (re.union (str.to.re "zzz") (str.to.re "A"))) (re.++ (re.union (re.union (str.to.re "BBB") (str.to.re "CC")) (re.union (str.to.re "D") (str.to.re "E"))) (re.++ (re.* (re.+ (str.to.re "FFF"))) (re.++ (re.* (re.* (str.to.re "G"))) (re.++ (re.union (re.+ (str.to.re "HHH")) (re.+ (str.to.re "I"))) (re.++ (re.+ (re.+ (str.to.re "JJ"))) (re.++ (re.+ (re.+ (str.to.re "K"))) (re.++ (re.+ (re.union (str.to.re "LLL") (str.to.re "MM"))) (re.++ (re.+ (re.+ (str.to.re "NNN"))) (re.++ (re.* (re.union (str.to.re "OO") (str.to.re "P"))) (re.++ (re.union (re.* (str.to.re "QQQ")) (re.* (str.to.re "RR"))) (re.++ (re.+ (re.* (str.to.re "S"))) (re.++ (re.union (re.union (str.to.re "TT") (str.to.re "UU")) (re.union (str.to.re "VVV") (str.to.re "W"))) (re.++ (re.+ (re.union (str.to.re "XX") (str.to.re "YYY"))) (re.++ (re.* (re.* (str.to.re "ZZ"))) (re.++ (re.+ (re.* (str.to.re "!!"))) (re.++ (re.+ (re.+ (str.to.re """"))) (re.++ (re.* (re.+ (str.to.re "##"))) (re.++ (re.+ (re.+ (str.to.re "$$"))) (re.++ (re.* (re.+ (str.to.re "%"))) (re.++ (re.+ (re.* (str.to.re "&"))) (re.++ (re.* (re.+ (str.to.re "'''"))) (re.++ (re.+ (re.union (str.to.re "(") (str.to.re ")"))) (re.++ (re.+ (re.+ (str.to.re "*"))) (re.++ (re.union (re.+ (str.to.re "+++")) (re.+ (str.to.re ",,,"))) (re.++ (re.union (re.+ (str.to.re "---")) (re.+ (str.to.re ".."))) (re.++ (re.* (re.* (str.to.re "///"))) (re.++ (re.union (re.* (str.to.re "::")) (re.* (str.to.re ";;;"))) (re.++ (re.+ (re.* (str.to.re "<<"))) (re.++ (re.+ (re.union (str.to.re "===") (str.to.re ">"))) (re.++ (re.+ (re.union (str.to.re "?") (str.to.re "@@"))) (re.++ (re.union (re.union (str.to.re "[[") (str.to.re "\\\\")) (re.union (str.to.re "]") (str.to.re "^^^"))) (re.++ (re.+ (re.* (str.to.re "_"))) (re.++ (re.+ (re.union (str.to.re "``") (str.to.re "{{"))) (re.++ (re.* (re.+ (str.to.re "|"))) (re.++ (re.+ (re.union (str.to.re "}}}") (str.to.re "~~"))) (re.++ (re.+ (re.* (str.to.re "000"))) (re.++ (re.+ (re.+ (str.to.re "111"))) (re.++ (re.+ (re.union (str.to.re "222") (str.to.re "3"))) (re.++ (re.+ (re.union (str.to.re "444") (str.to.re "5"))) (re.++ (re.* (re.* (str.to.re "666"))) (re.++ (re.+ (re.* (str.to.re "777"))) (re.++ (re.union (re.* (str.to.re "888")) (re.* (str.to.re "99"))) (re.++ (re.+ (re.* (str.to.re "a"))) (re.++ (re.* (re.+ (str.to.re "bbb"))) (re.++ (re.union (re.union (str.to.re "c") (str.to.re "dd")) (re.union (str.to.re "ee") (str.to.re "f"))) (re.++ (re.union (re.union (str.to.re "gg") (str.to.re "h")) (re.union (str.to.re "i") (str.to.re "jj"))) (re.++ (re.+ (re.union (str.to.re "kkk") (str.to.re "l"))) (re.++ (re.+ (re.* (str.to.re "mm"))) (re.++ (re.union (re.union (str.to.re "nnn") (str.to.re "o")) (re.union (str.to.re "ppp") (str.to.re "q"))) (re.* (re.+ (str.to.re "rrr")))))))))))))))))))))))))))))))))))))))))))))))))))))))))))))))))))))))))))
(assert (not (str.in.re var0 (re.++ (re.* (re.* (str.to.re "000"))) (re.++ (re.* (re.* (str.to.re "11"))) (re.++ (re.* (re.* (str.to.re "222"))) (re.++ (re.union (re.union (str.to.re "333") (str.to.re "4")) (re.union (str.to.re "555") (str.to.re "66"))) (re.++ (re.* (re.+ (str.to.re "777"))) (re.++ (re.* (re.* (str.to.re "8"))) (re.++ (re.* (re.union (str.to.re "99") (str.to.re "aa"))) (re.++ (re.* (re.* (str.to.re "bbb"))) (re.++ (re.* (re.* (str.to.re "ccc"))) (re.++ (re.* (re.* (str.to.re "dd"))) (re.++ (re.union (re.union (str.to.re "eee") (str.to.re "ff")) (re.union (str.to.re "gg") (str.to.re "h"))) (re.++ (re.union (re.union (str.to.re "ii") (str.to.re "jjj")) (re.union (str.to.re "kk") (str.to.re "lll"))) (re.++ (re.+ (re.+ (str.to.re "mmm"))) (re.++ (re.* (re.* (str.to.re "nnn"))) (re.++ (re.union (re.+ (str.to.re "ooo")) (re.+ (str.to.re "pp"))) (re.++ (re.union (re.* (str.to.re "qqq")) (re.* (str.to.re "rrr"))) (re.++ (re.union (re.* (str.to.re "ss")) (re.* (str.to.re "tt"))) (re.++ (re.* (re.union (str.to.re "uuu") (str.to.re "vv"))) (re.++ (re.union (re.union (str.to.re "www") (str.to.re "xxx")) (re.union (str.to.re "yy") (str.to.re "zzz"))) (re.++ (re.+ (re.* (str.to.re "AAA"))) (re.++ (re.* (re.+ (str.to.re "BB"))) (re.++ (re.+ (re.* (str.to.re "C"))) (re.++ (re.* (re.+ (str.to.re "DD"))) (re.++ (re.union (re.+ (str.to.re "EE")) (re.+ (str.to.re "F"))) (re.++ (re.union (re.union (str.to.re "GGG") (str.to.re "H")) (re.union (str.to.re "I") (str.to.re "JJ"))) (re.++ (re.union (re.+ (str.to.re "KK")) (re.+ (str.to.re "L"))) (re.++ (re.+ (re.* (str.to.re "MM"))) (re.++ (re.* (re.+ (str.to.re "NN"))) (re.++ (re.* (re.union (str.to.re "OO") (str.to.re "PPP"))) (re.++ (re.* (re.union (str.to.re "QQQ") (str.to.re "RRR"))) (re.++ (re.union (re.* (str.to.re "SSS")) (re.* (str.to.re "TTT"))) (re.++ (re.+ (re.+ (str.to.re "U"))) (re.++ (re.union (re.union (str.to.re "VVV") (str.to.re "W")) (re.union (str.to.re "XX") (str.to.re "Y"))) (re.++ (re.* (re.union (str.to.re "ZZZ") (str.to.re "!!!"))) (re.++ (re.union (re.+ (str.to.re """""""")) (re.+ (str.to.re "#"))) (re.++ (re.* (re.+ (str.to.re "$$"))) (re.++ (re.union (re.* (str.to.re "%%%")) (re.* (str.to.re "&&"))) (re.++ (re.union (re.* (str.to.re "''")) (re.* (str.to.re "("))) (re.++ (re.+ (re.+ (str.to.re "))"))) (re.++ (re.* (re.+ (str.to.re "**"))) (re.++ (re.union (re.+ (str.to.re "++")) (re.+ (str.to.re ",,"))) (re.++ (re.* (re.* (str.to.re "---"))) (re.++ (re.union (re.* (str.to.re ".")) (re.* (str.to.re "///"))) (re.++ (re.* (re.* (str.to.re ":::"))) (re.++ (re.union (re.union (str.to.re ";") (str.to.re "<")) (re.union (str.to.re "===") (str.to.re ">>"))) (re.++ (re.* (re.union (str.to.re "??") (str.to.re "@@@"))) (re.++ (re.* (re.* (str.to.re "[["))) (re.++ (re.* (re.+ (str.to.re "\\\\"))) (re.++ (re.* (re.* (str.to.re "]]"))) (re.++ (re.* (re.+ (str.to.re "^^"))) (re.++ (re.+ (re.+ (str.to.re "__"))) (re.++ (re.+ (re.union (str.to.re "``") (str.to.re "{"))) (re.++ (re.union (re.+ (str.to.re "||")) (re.+ (str.to.re "}"))) (re.++ (re.+ (re.union (str.to.re "~~") (str.to.re "000"))) (re.++ (re.* (re.union (str.to.re "1") (str.to.re "2"))) (re.++ (re.+ (re.+ (str.to.re "3"))) (re.++ (re.* (re.union (str.to.re "4") (str.to.re "5"))) (re.++ (re.union (re.* (str.to.re "66")) (re.* (str.to.re "7"))) (re.++ (re.+ (re.+ (str.to.re "8"))) (re.++ (re.union (re.* (str.to.re "99")) (re.* (str.to.re "a"))) (re.++ (re.* (re.* (str.to.re "bb"))) (re.++ (re.union (re.* (str.to.re "ccc")) (re.* (str.to.re "d"))) (re.++ (re.union (re.union (str.to.re "ee") (str.to.re "fff")) (re.union (str.to.re "gg") (str.to.re "hh"))) (re.++ (re.union (re.* (str.to.re "ii")) (re.* (str.to.re "j"))) (re.++ (re.* (re.union (str.to.re "kk") (str.to.re "lll"))) (re.++ (re.+ (re.* (str.to.re "mmm"))) (re.++ (re.+ (re.* (str.to.re "nn"))) (re.++ (re.* (re.+ (str.to.re "oo"))) (re.++ (re.* (re.+ (str.to.re "ppp"))) (re.++ (re.* (re.+ (str.to.re "q"))) (re.* (re.* (str.to.re "rr"))))))))))))))))))))))))))))))))))))))))))))))))))))))))))))))))))))))))))))
(check-sat)